NAME : P = NP
TYPE : TSP
DIMENSION : 61
EDGE_WEIGHT_TYPE : EUC_2D
NODE_COORD_SECTION
0 38 16
1 259 108
2 42 735
3 310 766
4 27 165
5 94 78
6 1 22
7 438 94
8 468 65
9 179 762
10 208 291
11 469 326
12 506 158
13 153 44
14 239 399
15 799 104
16 11 276
17 327 693
18 149 34
19 306 301
20 112 520
21 405 336
22 223 671
23 522 172
24 166 723
25 270 12
26 45 8
27 95 554
28 190 531
29 64 204
30 34 577
31 301 224
32 33 125
33 445 406
34 310 14
35 159 9
36 148 543
37 329 383
38 569 145
39 224 71
40 471 323
41 479 234
42 52 482
43 421 71
44 153 270
45 82 216
46 0 22
47 33 127
48 599 39
49 99 52
50 145 378
51 130 652
52 655 33
53 307 28
54 211 1
55 399 124
56 109 51
57 187 1
58 138 268
59 60 241
60 509 332